100
75
52
52
52
51
51
51
51
50
48
48
48
48
48
48
47
46
46
46
44
44
44
43
43
43
42
42
41
41
40
38
38
37
37
37
37
37
36
35
35
34
34
34
33
32
32
32
31
31
30
29
29
29
29
28
28
27
27
27
26
26
26
25
24
24
24
24
24
23
23
22
22
22
21
21
20
20
18
18
18
18
17
17
14
14
14
13
13
13
13
12
12
11
11
11
11
10
9
9
8
7
